CLT03
Position Depot: Center
Horizon for Depot: Large
Position of customers: Cluster
Distribution of the demand: Large
Width of time windows: Tight
Distribution of the service: Large

VEHICLE 
NUMBER 	 CAPACITY 
 5 	 	 517 
 
CUSTOMER
CUST NO. 	 XCOORD.  	 YCOORD. 	 DEMAND 	 READY TIME 	 DUE DATE 	 SERVICE TIME 
 0 	 	 500 	 	 500 	 	 0 	 	 0 	 	 3300 	 	 0 
  1 	 	 929 	 	 297 	 	 89 	 	 2273 	 	 2379 	 	 182 
  2 	 	 714 	 	 340 	 	 81 	 	 1688 	 	 1744 	 	 164 
  3 	 	 270 	 	 106 	 	 26 	 	 2439 	 	 2518 	 	 176 
  4 	 	 886 	 	 412 	 	 25 	 	 466 	 	 557 	 	 194 
  5 	 	 958 	 	 747 	 	 48 	 	 535 	 	 616 	 	 189 
  6 	 	 877 	 	 597 	 	 44 	 	 2209 	 	 2267 	 	 129 
  7 	 	 252 	 	 780 	 	 39 	 	 1014 	 	 1174 	 	 151 
  8 	 	 943 	 	 415 	 	 68 	 	 2853 	 	 3003 	 	 114 
  9 	 	 897 	 	 712 	 	 1 	 	 322 	 	 495 	 	 103 
  10 	 	 286 	 	 117 	 	 34 	 	 1820 	 	 1915 	 	 150 
  11 	 	 900 	 	 358 	 	 95 	 	 2128 	 	 2298 	 	 198 
  12 	 	 916 	 	 728 	 	 39 	 	 1415 	 	 1500 	 	 128 
  13 	 	 973 	 	 293 	 	 64 	 	 940 	 	 1005 	 	 143 
  14 	 	 483 	 	 676 	 	 79 	 	 44 	 	 206 	 	 193 
  15 	 	 764 	 	 261 	 	 82 	 	 2027 	 	 2111 	 	 159 
  16 	 	 920 	 	 428 	 	 93 	 	 2794 	 	 2910 	 	 132 
  17 	 	 869 	 	 604 	 	 56 	 	 2658 	 	 2722 	 	 124 
  18 	 	 216 	 	 40 	 	 44 	 	 814 	 	 912 	 	 200 
  19 	 	 869 	 	 465 	 	 24 	 	 1185 	 	 1335 	 	 120 
  20 	 	 616 	 	 369 	 	 80 	 	 3018 	 	 3198 	 	 100 
  21 	 	 707 	 	 348 	 	 37 	 	 3091 	 	 3144 	 	 198 
  22 	 	 254 	 	 115 	 	 68 	 	 423 	 	 542 	 	 182 
  23 	 	 960 	 	 425 	 	 1 	 	 1770 	 	 1935 	 	 182 
  24 	 	 652 	 	 388 	 	 6 	 	 2430 	 	 2618 	 	 126 
  25 	 	 389 	 	 748 	 	 15 	 	 908 	 	 1096 	 	 198 
  26 	 	 910 	 	 678 	 	 28 	 	 506 	 	 594 	 	 105 
  27 	 	 901 	 	 755 	 	 4 	 	 1294 	 	 1423 	 	 184 
  28 	 	 219 	 	 188 	 	 37 	 	 3124 	 	 3174 	 	 117 
  29 	 	 920 	 	 711 	 	 47 	 	 2478 	 	 2529 	 	 104 
  30 	 	 822 	 	 581 	 	 74 	 	 3037 	 	 3218 	 	 175 
  31 	 	 650 	 	 645 	 	 100 	 	 1227 	 	 1309 	 	 164 
  32 	 	 773 	 	 384 	 	 44 	 	 1791 	 	 1881 	 	 168 
  33 	 	 724 	 	 222 	 	 35 	 	 620 	 	 718 	 	 177 
  34 	 	 889 	 	 317 	 	 88 	 	 2893 	 	 3071 	 	 166 
  35 	 	 234 	 	 251 	 	 76 	 	 1752 	 	 1834 	 	 150 
  36 	 	 746 	 	 319 	 	 89 	 	 2324 	 	 2487 	 	 179 
  37 	 	 293 	 	 777 	 	 94 	 	 834 	 	 972 	 	 155 
  38 	 	 955 	 	 668 	 	 42 	 	 1118 	 	 1310 	 	 168 
  39 	 	 740 	 	 342 	 	 39 	 	 2688 	 	 2744 	 	 126 
  40 	 	 910 	 	 305 	 	 68 	 	 387 	 	 499 	 	 187 
  41 	 	 983 	 	 382 	 	 60 	 	 2226 	 	 2419 	 	 149 
  42 	 	 658 	 	 293 	 	 49 	 	 438 	 	 511 	 	 150 
  43 	 	 930 	 	 525 	 	 51 	 	 1746 	 	 1893 	 	 134 
  44 	 	 943 	 	 682 	 	 67 	 	 447 	 	 526 	 	 136 
  45 	 	 837 	 	 275 	 	 59 	 	 1759 	 	 1947 	 	 117 
  46 	 	 906 	 	 766 	 	 12 	 	 1763 	 	 1902 	 	 193 
  47 	 	 167 	 	 845 	 	 47 	 	 1930 	 	 2108 	 	 164 
  48 	 	 734 	 	 326 	 	 69 	 	 395 	 	 589 	 	 199 
  49 	 	 266 	 	 170 	 	 56 	 	 436 	 	 497 	 	 129 
  50 	 	 811 	 	 508 	 	 10 	 	 190 	 	 342 	 	 132 
 